NAME          ClpDefau
ROWS
 N  OBJROW
 L  R_180_0
 L  R_180_1
 L  R_180_2
 L  R_180_3
 L  R_180_4
 L  R_180_5
 L  R_180_6
 L  R_180_7
 L  R_180_8
 L  R_180_9
 L  R_180_10
 L  R_180_11
 L  R_180_12
 L  R_180_13
 L  R_180_14
 L  R_180_15
 L  R_180_16
 L  R_180_17
 L  R_180_18
 L  R_180_19
 L  R_180_20
 L  R_180_21
 L  R_180_22
 L  R_180_23
 L  R_180_24
 L  R_180_25
 L  R_180_26
 L  R_180_27
 L  R_180_28
 L  R_180_29
 L  R_180_30
 L  R_180_31
COLUMNS
    x_0       OBJROW     -8.           R_180_1   93.         
    x_0       R_180_3   48.            R_180_4   57.         
    x_0       R_180_5   5.             R_180_7   41.         
    x_0       R_180_9   68.            R_180_10  23.         
    x_0       R_180_11  4.             R_180_12  23.         
    x_0       R_180_13  66.            R_180_14  66.         
    x_0       R_180_15  24.            R_180_17  54.         
    x_0       R_180_18  98.            R_180_19  76.         
    x_0       R_180_20  58.            R_180_21  97.         
    x_0       R_180_22  95.            R_180_23  68.         
    x_0       R_180_24  36.            R_180_26  46.         
    x_0       R_180_27  59.            R_180_29  73.         
    x_0       R_180_30  72.            R_180_31  63.         
    x_1       OBJROW     -12.          R_180_0   42.         
    x_1       R_180_4   99.            R_180_6   91.         
    x_1       R_180_8   65.            R_180_9   76.         
    x_1       R_180_10  94.            R_180_11  66.         
    x_1       R_180_12  88.            R_180_13  10.         
    x_1       R_180_14  44.            R_180_15  25.         
    x_1       R_180_17  74.            R_180_18  35.         
    x_1       R_180_19  88.            R_180_21  67.         
    x_1       R_180_22  35.            R_180_23  27.         
    x_1       R_180_25  92.            R_180_26  8.          
    x_1       R_180_27  23.            R_180_28  4.          
    x_1       R_180_29  9.             R_180_30  94.         
    x_2       OBJROW     -11.          R_180_0   17.         
    x_2       R_180_2   24.            R_180_3   1.          
    x_2       R_180_4   6.             R_180_5   32.         
    x_2       R_180_6   5.             R_180_7   79.         
    x_2       R_180_8   96.            R_180_9   44.         
    x_2       R_180_10  40.            R_180_11  99.         
    x_2       R_180_12  6.             R_180_14  80.         
    x_2       R_180_15  61.            R_180_17  88.         
    x_2       R_180_18  14.            R_180_19  17.         
    x_2       R_180_20  100.           R_180_21  66.         
    x_2       R_180_22  44.            R_180_23  78.         
    x_2       R_180_25  90.            R_180_26  18.         
    x_2       R_180_27  33.            R_180_28  21.         
    x_2       R_180_29  59.            R_180_30  66.         
    x_3       OBJROW     -47.          R_180_0   5.          
    x_3       R_180_2   57.            R_180_3   11.         
    x_3       R_180_4   80.            R_180_5   80.         
    x_3       R_180_6   33.            R_180_7   36.         
    x_3       R_180_8   1.             R_180_9   50.         
    x_3       R_180_10  15.            R_180_11  12.         
    x_3       R_180_12  13.            R_180_13  97.         
    x_3       R_180_14  28.            R_180_15  86.         
    x_3       R_180_16  40.            R_180_17  49.         
    x_3       R_180_18  98.            R_180_20  56.         
    x_3       R_180_21  3.             R_180_22  7.          
    x_3       R_180_25  13.            R_180_26  62.         
    x_3       R_180_27  67.            R_180_29  47.         
    x_3       R_180_30  48.            R_180_31  88.         
    x_4       OBJROW     -22.          R_180_0   14.         
    x_4       R_180_1   100.           R_180_2   3.          
    x_4       R_180_4   82.            R_180_5   27.         
    x_4       R_180_7   1.             R_180_8   48.         
    x_4       R_180_9   93.            R_180_10  97.         
    x_4       R_180_11  15.            R_180_12  51.         
    x_4       R_180_13  18.            R_180_14  51.         
    x_4       R_180_16  16.            R_180_17  43.         
    x_4       R_180_18  28.            R_180_19  4.          
    x_4       R_180_20  61.            R_180_21  93.         
    x_4       R_180_22  38.            R_180_23  59.         
    x_4       R_180_24  48.            R_180_25  68.         
    x_4       R_180_27  94.            R_180_31  30.         
    x_5       OBJROW     -95.          R_180_0   77.         
    x_5       R_180_1   55.            R_180_2   90.         
    x_5       R_180_4   74.            R_180_5   46.         
    x_5       R_180_6   70.            R_180_7   54.         
    x_5       R_180_9   88.            R_180_11  17.         
    x_5       R_180_13  91.            R_180_14  88.         
    x_5       R_180_15  23.            R_180_16  15.         
    x_5       R_180_17  97.            R_180_18  43.         
    x_5       R_180_19  92.            R_180_20  22.         
    x_5       R_180_22  91.            R_180_23  46.         
    x_5       R_180_24  74.            R_180_25  60.         
    x_5       R_180_26  4.             R_180_28  95.         
    x_5       R_180_29  66.            R_180_30  36.         
    x_5       R_180_31  91.         
    x_6       OBJROW     -86.          R_180_0   53.         
    x_6       R_180_1   61.            R_180_2   71.         
    x_6       R_180_3   96.            R_180_5   93.         
    x_6       R_180_6   80.            R_180_7   86.         
    x_6       R_180_8   82.            R_180_10  68.         
    x_6       R_180_11  60.            R_180_12  13.         
    x_6       R_180_13  28.            R_180_14  78.         
    x_6       R_180_15  28.            R_180_17  72.         
    x_6       R_180_18  26.            R_180_19  76.         
    x_6       R_180_20  63.            R_180_22  79.         
    x_6       R_180_23  62.            R_180_24  73.         
    x_6       R_180_25  92.            R_180_26  98.         
    x_6       R_180_27  1.             R_180_29  86.         
    x_6       R_180_30  97.            R_180_31  87.         
    x_7       OBJROW     -40.          R_180_1   65.         
    x_7       R_180_2   11.            R_180_3   45.         
    x_7       R_180_4   97.            R_180_7   81.         
    x_7       R_180_8   93.            R_180_9   21.         
    x_7       R_180_10  60.            R_180_11  20.         
    x_7       R_180_12  72.            R_180_13  1.          
    x_7       R_180_14  69.            R_180_16  27.         
    x_7       R_180_18  84.            R_180_19  89.         
    x_7       R_180_20  39.            R_180_21  41.         
    x_7       R_180_22  83.            R_180_24  83.         
    x_7       R_180_25  12.            R_180_26  27.         
    x_7       R_180_27  68.            R_180_29  65.         
    x_7       R_180_30  40.            R_180_31  59.         
    x_8       OBJROW     -33.          R_180_0   67.         
    x_8       R_180_1   15.            R_180_2   49.         
    x_8       R_180_4   46.            R_180_5   59.         
    x_8       R_180_6   64.            R_180_7   38.         
    x_8       R_180_8   18.            R_180_10  82.         
    x_8       R_180_11  35.            R_180_12  13.         
    x_8       R_180_14  97.            R_180_15  48.         
    x_8       R_180_16  18.            R_180_17  30.         
    x_8       R_180_18  71.            R_180_19  52.         
    x_8       R_180_21  36.            R_180_24  89.         
    x_8       R_180_25  42.            R_180_26  97.         
    x_8       R_180_27  91.            R_180_29  92.         
    x_8       R_180_30  80.            R_180_31  10.         
    x_9       OBJROW     -78.          R_180_0   51.         
    x_9       R_180_1   34.            R_180_3   62.         
    x_9       R_180_4   24.            R_180_5   49.         
    x_9       R_180_6   4.             R_180_7   22.         
    x_9       R_180_8   94.            R_180_9   56.         
    x_9       R_180_10  42.            R_180_11  77.         
    x_9       R_180_12  37.            R_180_13  20.         
    x_9       R_180_14  26.            R_180_16  19.         
    x_9       R_180_17  43.            R_180_18  54.         
    x_9       R_180_19  12.            R_180_20  32.         
    x_9       R_180_21  94.            R_180_22  44.         
    x_9       R_180_24  79.            R_180_25  19.         
    x_9       R_180_26  9.             R_180_27  100.        
    x_9       R_180_28  42.            R_180_29  15.         
    x_9       R_180_30  99.            R_180_31  51.         
    x_10      OBJROW     -28.          R_180_0   7.          
    x_10      R_180_1   61.            R_180_2   41.         
    x_10      R_180_3   80.            R_180_4   76.         
    x_10      R_180_5   86.            R_180_9   53.         
    x_10      R_180_10  58.            R_180_11  14.         
    x_10      R_180_12  76.            R_180_13  88.         
    x_10      R_180_14  23.            R_180_15  40.         
    x_10      R_180_16  91.            R_180_17  14.         
    x_10      R_180_18  29.            R_180_19  19.         
    x_10      R_180_20  12.            R_180_21  84.         
    x_10      R_180_22  61.            R_180_23  62.         
    x_10      R_180_24  4.             R_180_25  65.         
    x_10      R_180_26  7.             R_180_27  1.          
    x_10      R_180_29  88.            R_180_30  31.         
    x_10      R_180_31  63.         
    x_11      OBJROW     -78.          R_180_0   70.         
    x_11      R_180_1   14.            R_180_2   7.          
    x_11      R_180_3   81.            R_180_4   80.         
    x_11      R_180_5   51.            R_180_7   65.         
    x_11      R_180_8   87.            R_180_9   14.         
    x_11      R_180_11  27.            R_180_12  26.         
    x_11      R_180_13  56.            R_180_14  17.         
    x_11      R_180_15  39.            R_180_17  61.         
    x_11      R_180_18  68.            R_180_19  36.         
    x_11      R_180_20  90.            R_180_21  71.         
    x_11      R_180_22  4.             R_180_23  97.         
    x_11      R_180_24  25.            R_180_25  6.          
    x_11      R_180_26  81.            R_180_27  34.         
    x_11      R_180_28  61.            R_180_29  95.         
    x_11      R_180_30  29.         
    x_12      OBJROW     -5.           R_180_0   5.          
    x_12      R_180_1   14.            R_180_2   89.         
    x_12      R_180_3   24.            R_180_4   12.         
    x_12      R_180_7   38.            R_180_9   42.         
    x_12      R_180_10  36.            R_180_12  9.          
    x_12      R_180_13  54.            R_180_14  5.          
    x_12      R_180_15  85.            R_180_17  94.         
    x_12      R_180_18  3.             R_180_19  43.         
    x_12      R_180_20  94.            R_180_21  68.         
    x_12      R_180_22  26.            R_180_23  17.         
    x_12      R_180_24  58.            R_180_27  79.         
    x_12      R_180_28  25.            R_180_29  57.         
    x_12      R_180_30  61.         
    x_13      OBJROW     -75.          R_180_0   10.         
    x_13      R_180_1   78.            R_180_2   61.         
    x_13      R_180_3   79.            R_180_4   74.         
    x_13      R_180_6   40.            R_180_8   39.         
    x_13      R_180_9   4.             R_180_10  41.         
    x_13      R_180_11  69.            R_180_12  93.         
    x_13      R_180_13  57.            R_180_14  61.         
    x_13      R_180_16  75.            R_180_17  28.         
    x_13      R_180_18  78.            R_180_19  93.         
    x_13      R_180_20  76.            R_180_21  36.         
    x_13      R_180_22  64.            R_180_23  31.         
    x_13      R_180_24  39.            R_180_27  80.         
    x_13      R_180_28  43.            R_180_29  90.         
    x_13      R_180_30  53.            R_180_31  28.         
    x_14      OBJROW     -88.          R_180_0   34.         
    x_14      R_180_1   18.            R_180_3   56.         
    x_14      R_180_4   59.            R_180_5   61.         
    x_14      R_180_7   31.            R_180_8   69.         
    x_14      R_180_9   12.            R_180_10  70.         
    x_14      R_180_11  7.             R_180_12  56.         
    x_14      R_180_13  66.            R_180_14  47.         
    x_14      R_180_15  67.            R_180_17  9.          
    x_14      R_180_18  95.            R_180_19  36.         
    x_14      R_180_20  62.            R_180_21  84.         
    x_14      R_180_22  42.            R_180_23  7.          
    x_14      R_180_24  83.            R_180_25  98.         
    x_14      R_180_26  72.            R_180_27  87.         
    x_14      R_180_28  56.            R_180_29  5.          
    x_14      R_180_30  85.            R_180_31  7.          
    x_15      OBJROW     -21.          R_180_1   44.         
    x_15      R_180_2   13.            R_180_3   14.         
    x_15      R_180_4   45.            R_180_5   82.         
    x_15      R_180_6   62.            R_180_8   20.         
    x_15      R_180_9   44.            R_180_10  82.         
    x_15      R_180_11  87.            R_180_13  7.          
    x_15      R_180_15  70.            R_180_16  99.         
    x_15      R_180_17  54.            R_180_18  24.         
    x_15      R_180_19  6.             R_180_20  98.         
    x_15      R_180_23  38.            R_180_24  6.          
    x_15      R_180_26  29.            R_180_27  47.         
    x_15      R_180_28  77.            R_180_30  71.         
    x_15      R_180_31  1.          
RHS
    RHS       R_180_0   817.           R_180_1   743.        
    RHS       R_180_2   660.           R_180_3   768.        
    RHS       R_180_4   711.           R_180_5   788.        
    RHS       R_180_6   806.           R_180_7   696.        
    RHS       R_180_8   653.           R_180_9   774.        
    RHS       R_180_10  772.           R_180_11  775.        
    RHS       R_180_12  743.           R_180_13  749.        
    RHS       R_180_14  840.           R_180_15  672.        
    RHS       R_180_16  679.           R_180_17  749.        
    RHS       R_180_18  673.           R_180_19  757.        
    RHS       R_180_20  828.           R_180_21  735.        
    RHS       R_180_22  653.           R_180_23  786.        
    RHS       R_180_24  686.           R_180_25  772.        
    RHS       R_180_26  849.           R_180_27  752.        
    RHS       R_180_28  751.           R_180_29  793.        
    RHS       R_180_30  850.           R_180_31  844.        
BOUNDS
 UI BOUND     x_0       100.        
 UI BOUND     x_1       100.        
 UI BOUND     x_2       100.        
 UI BOUND     x_3       100.        
 UI BOUND     x_4       100.        
 UI BOUND     x_5       100.        
 UI BOUND     x_6       100.        
 UI BOUND     x_7       100.        
 UI BOUND     x_8       100.        
 UI BOUND     x_9       100.        
 UI BOUND     x_10      100.        
 UI BOUND     x_11      100.        
 UI BOUND     x_12      100.        
 UI BOUND     x_13      100.        
 UI BOUND     x_14      100.        
 UI BOUND     x_15      100.        
ENDATA
